# Solution for model GasLib-40
# Objective value = 1.6202454169020228e+01
loadshed[innode_1] 0
loadshed[innode_2] 0
loadshed[innode_3] 0
loadshed[innode_4] 0
loadshed[innode_5] 0
loadshed[innode_6] 0
loadshed[innode_7] 0
loadshed[innode_8] 0
loadshed[source_1] -1.4484406242001735e-01
loadshed[source_2] 1.9155337286849039e-02
loadshed[source_3] 2.2817734364129905e-01
loadshed[sink_1] 0
loadshed[sink_2] 0
loadshed[sink_3] 0
loadshed[sink_4] 0
loadshed[sink_5] 0
loadshed[sink_6] 0
loadshed[sink_7] 0
loadshed[sink_8] 0
loadshed[sink_9] 0
loadshed[sink_10] 0
loadshed[sink_11] 0
loadshed[sink_12] 9.9072331224582277e-01
loadshed[sink_13] 0
loadshed[sink_14] 0
loadshed[sink_15] 0
loadshed[sink_16] 0
loadshed[sink_17] 0
loadshed[sink_18] 0
loadshed[sink_19] 0
loadshed[sink_20] 0
loadshed[sink_21] 0
loadshed[sink_22] 0
loadshed[sink_23] 0
loadshed[sink_24] 0
loadshed[sink_25] 0
loadshed[sink_26] 0
loadshed[sink_27] 0
loadshed[sink_28] 0
loadshed[sink_29] 0
flow[source_1,sink_3] 1.8098871584022010e+02
flow[innode_1,sink_16] 1.6354166666666970e+01
flow[innode_6,sink_13] -7.5384914722629119e+00
flow[sink_13,sink_14] -2.3892658138929580e+01
flow[sink_14,sink_10] -4.0246824805596248e+01
flow[sink_25,sink_26] 1.9640171249764842e+02
flow[sink_26,sink_9] 1.8004754583098165e+02
flow[sink_9,sink_18] 163.693379164315
flow[sink_26,sink_4] 0
flow[sink_4,sink_20] -16.3541666666693
flow[sink_18,sink_6] 1.4733921249764833e+02
flow[sink_25,innode_8] -1.4828038250688371e+02
flow[sink_6,sink_7] 9.8276712497648077e+01
flow[sink_6,sink_22] 3.2708333333333641e+01
flow[sink_7,sink_24] 3.2860045830979779e+01
flow[sink_22,sink_1] 1.6354166666666970e+01
flow[sink_24,sink_21] 1.6505879164313107e+01
flow[sink_21,sink_12] 1.5171249764644029e-01
flow[sink_7,sink_5] 4.9062500000001677e+01
flow[sink_5,sink_17] 3.2708333333335005e+01
flow[sink_17,sink_4] 0
flow[sink_17,sink_8] 1.6354166666668334e+01
flow[sink_3,sink_23] 16.3541666666697
flow[sink_8,sink_20] 0
flow[sink_25,sink_20] 3.2708333333335972e+01
flow[sink_25,sink_15] -8.9645338518504872e+01
flow[sink_15,sink_29] -5.9513813980304469e+01
flow[sink_29,sink_28] 1.6354166666667879e+01
flow[sink_29,sink_2] 6.2839857871533738e+01
flow[sink_2,sink_15] 4.6485691204867067e+01
flow[sink_29,innode_7] -1.5506200518517278e+02
flow[innode_4,sink_19] 4.7416324663183318e+01
flow[sink_19,innode_3] 4.3582573530678580e+01
flow[innode_4,innode_5] 7.4601333475746031e+01
flow[sink_27,innode_5] -7.4601333475746031e+01
flow[sink_27,sink_19] 5.8247166809079360e+01
flow[sink_10,sink_11] 3.2708333333333641e+01
flow[sink_10,innode_2] -4.5726751274918009e+01
flow[sink_10,innode_3] -4.3582573530678580e+01
flow[innode_6,sink_25] 7.5384914722629119e+00
flow[sink_11,innode_1] 1.6354166666666970e+01
flow[sink_19,innode_2] 4.5726751274918009e+01
flow[source_3,innode_4] 1.2201765813892935e+02
flow[source_2,innode_7] 1.5506200518517278e+02
flow[sink_3,innode_8] 1.4828038250688371e+02
pressure[innode_1] 7.6523744900259317e+01
pressure[innode_2] 79.0922938704106
pressure[innode_3] 7.8995785196518014e+01
pressure[innode_4] 81.01325
pressure[innode_5] 8.0961935269094880e+01
pressure[innode_6] 74.6875115163445
pressure[innode_7] 81.01325
pressure[innode_8] 8.0408273863141645e+01
pressure[source_1] 81.01325
pressure[source_2] 81.01325
pressure[source_3] 81.01325
pressure[sink_1] 3.8120356318652796e+01
pressure[sink_2] 7.5274144297037026e+01
pressure[sink_3] 8.0408273863141645e+01
pressure[sink_4] 65.6901271506207
pressure[sink_5] 1.8467618841991090e+01
pressure[sink_6] 4.0221433929040167e+01
pressure[sink_7] 3.8872328922675067e+01
pressure[sink_8] 1.5413999235867923e+01
pressure[sink_9] 5.0078743937556247e+01
pressure[sink_10] 7.6675446207862862e+01
pressure[sink_11] 7.6523744900259317e+01
pressure[sink_12] 1.01325
pressure[sink_13] 7.4729069960032135e+01
pressure[sink_14] 74.7718279069762
pressure[sink_15] 7.5122378760534460e+01
pressure[sink_16] 7.5502095065441637e+01
pressure[sink_17] 1.6031084431281549e+01
pressure[sink_18] 4.4155829589213710e+01
pressure[sink_19] 79.0922938704106
pressure[sink_20] 6.6889944860012349e+01
pressure[sink_21] 1.0672376099199425e+00
pressure[sink_22] 39.1841254610078
pressure[sink_23] 8.0243555851481858e+01
pressure[sink_24] 1.2500248858739844e+00
pressure[sink_25] 74.6875115163445
pressure[sink_26] 6.0855054245464594e+01
pressure[sink_27] 8.0342882049688441e+01
pressure[sink_28] 7.6570666542386860e+01
pressure[sink_29] 7.6865948816004035e+01
interdiction[source_1,sink_3] 0
interdiction[innode_1,sink_16] 0
interdiction[innode_6,sink_13] 0
interdiction[sink_13,sink_14] 0
interdiction[sink_14,sink_10] 0
interdiction[sink_25,sink_26] 0
interdiction[sink_26,sink_9] 0
interdiction[sink_9,sink_18] 0
interdiction[sink_26,sink_4] 1
interdiction[sink_4,sink_20] 0
interdiction[sink_18,sink_6] 0
interdiction[sink_25,innode_8] 0
interdiction[sink_6,sink_7] 0
interdiction[sink_6,sink_22] 0
interdiction[sink_7,sink_24] 0
interdiction[sink_22,sink_1] 0
interdiction[sink_24,sink_21] 0
interdiction[sink_21,sink_12] 0
interdiction[sink_7,sink_5] 0
interdiction[sink_5,sink_17] 0
interdiction[sink_17,sink_4] 1
interdiction[sink_17,sink_8] 0
interdiction[sink_3,sink_23] 0
interdiction[sink_8,sink_20] 1
interdiction[sink_25,sink_20] 0
interdiction[sink_25,sink_15] 0
interdiction[sink_15,sink_29] 0
interdiction[sink_29,sink_28] 0
interdiction[sink_29,sink_2] 0
interdiction[sink_2,sink_15] 0
interdiction[sink_29,innode_7] 0
interdiction[innode_4,sink_19] 0
interdiction[sink_19,innode_3] 0
interdiction[innode_4,innode_5] 0
interdiction[sink_27,innode_5] 0
interdiction[sink_27,sink_19] 0
interdiction[sink_10,sink_11] 0
interdiction[sink_10,innode_2] 0
interdiction[sink_10,innode_3] 0
interdiction[innode_6,sink_25] 0
interdiction[sink_11,innode_1] 0
interdiction[sink_19,innode_2] 0
interdiction[source_3,innode_4] 0
interdiction[source_2,innode_7] 0
interdiction[sink_3,innode_8] 0
WCcheckFlow[source_1,sink_3] 39
WCcheckFlow[innode_1,sink_16] 1
WCcheckFlow[innode_6,sink_13] 13
WCcheckFlow[sink_13,sink_14] 12
WCcheckFlow[sink_14,sink_10] 11
WCcheckFlow[sink_25,sink_26] 13
WCcheckFlow[sink_26,sink_9] 12
WCcheckFlow[sink_9,sink_18] 11
WCcheckFlow[sink_26,sink_4] 0
WCcheckFlow[sink_4,sink_20] -1
WCcheckFlow[sink_18,sink_6] 10
WCcheckFlow[sink_25,innode_8] -36
WCcheckFlow[sink_6,sink_7] 7
WCcheckFlow[sink_6,sink_22] 2
WCcheckFlow[sink_7,sink_24] 3
WCcheckFlow[sink_22,sink_1] 1
WCcheckFlow[sink_24,sink_21] 2
WCcheckFlow[sink_21,sink_12] 1
WCcheckFlow[sink_7,sink_5] 3
WCcheckFlow[sink_5,sink_17] 2
WCcheckFlow[sink_17,sink_4] 0
WCcheckFlow[sink_17,sink_8] 1
WCcheckFlow[sink_3,sink_23] 1
WCcheckFlow[sink_8,sink_20] 0
WCcheckFlow[sink_25,sink_20] 2
WCcheckFlow[sink_25,sink_15] 6
WCcheckFlow[sink_15,sink_29] 5
WCcheckFlow[sink_29,sink_28] 1
WCcheckFlow[sink_29,sink_2] 1
WCcheckFlow[sink_2,sink_15] 0
WCcheckFlow[sink_29,innode_7] 2
WCcheckFlow[innode_4,sink_19] -4
WCcheckFlow[sink_19,innode_3] -5
WCcheckFlow[innode_4,innode_5] 2
WCcheckFlow[sink_27,innode_5] -1
WCcheckFlow[sink_27,sink_19] 0
WCcheckFlow[sink_10,sink_11] 3
WCcheckFlow[sink_10,innode_2] 1
WCcheckFlow[sink_10,innode_3] 6
WCcheckFlow[innode_6,sink_25] -14
WCcheckFlow[sink_11,innode_1] 2
WCcheckFlow[sink_19,innode_2] 0
WCcheckFlow[source_3,innode_4] -1
WCcheckFlow[source_2,innode_7] -1
WCcheckFlow[sink_3,innode_8] 37
